
Gurobi 6.5.2 (linux64) logging started Wed Sep 14 14:58:49 2016

Optimize a model with 41 rows, 115 columns and 271 nonzeros
Coefficient statistics:
  Matrix range    [1e+00, 2e+00]
  Objective range [5e+00, 1e+02]
  Bounds range    [1e+00, 1e+00]
  RHS range       [1e+00, 1e+00]
Presolve removed 14 rows and 4 columns
Presolve time: 0.00s
Presolved: 27 rows, 111 columns, 227 nonzeros
Variable types: 0 continuous, 111 integer (111 binary)
Found heuristic solution: objective 1251.0000000

Root relaxation: objective 6.510000e+02, 33 iterations, 0.00 seconds

    Nodes    |    Current Node    |     Objective Bounds      |     Work
 Expl Unexpl |  Obj  Depth IntInf | Incumbent    BestBd   Gap | It/Node Time

     0     0  651.00000    0    6 1251.00000  651.00000  48.0%     -    0s
H    0     0                     943.0000000  651.00000  31.0%     -    0s
     0     0  664.66667    0   10  943.00000  664.66667  29.5%     -    0s
*    0     0               0     667.0000000  667.00000  0.00%     -    0s

Cutting planes:
  Gomory: 3
  Cover: 4
  Zero half: 1
  Lazy constraints: 7

Explored 0 nodes (44 simplex iterations) in 0.01 seconds
Thread count was 8 (of 8 available processors)

Optimal solution found (tolerance 1.00e-04)
Best objective 6.670000000000e+02, best bound 6.670000000000e+02, gap 0.0%
